solution status: optimal solution found
objective value:                                    0
$_14__0_y                                          22 	(obj:0)
$_14__0_z                                          22 	(obj:0)
$_19_y                                             20 	(obj:0)
$_19_z                                             23 	(obj:0)
$_12__0_y                                          23 	(obj:0)
$_12__0_z                                          22 	(obj:0)
$_11__0_y                                          22 	(obj:0)
$_11__0_z                                          23 	(obj:0)
$_13__0_y                                          21 	(obj:0)
$_13__0_z                                          22 	(obj:0)
$_15__0_y                                          20 	(obj:0)
$_15__0_z                                          20 	(obj:0)
$_16__0_y                                          23 	(obj:0)
$_16__0_z                                          21 	(obj:0)
$_20_y                                             20 	(obj:0)
$_20_z                                             19 	(obj:0)
$_56_y                                             19 	(obj:0)
$_56_z                                             18 	(obj:0)
$_34_y                                             19 	(obj:0)
$_34_z                                             19 	(obj:0)
$_18_y                                             21 	(obj:0)
$_18_z                                             19 	(obj:0)
$_17_y                                             22 	(obj:0)
$_17_z                                             19 	(obj:0)
